# -*- lammps -*-

units           real

atom_style      full
bond_style      harmonic
angle_style     charmm
dihedral_style  charmm
improper_style  harmonic
special_bonds   charmm

neigh_modify    delay 2 every 1
pair_style      lj/charmmfsw/coul/charmmfsh 10.0 12.0
pair_modify     mix arithmetic
# kspace_style    pppm 1e-6  # Uncomment it out for coul/long
boundary        f f f  # Comment for coul/long

