# -*- lammps -*-

units           real

atom_style      full
pair_style      lj/charmmfsw/coul/charmmfsh 10.0 12.0
pair_modify     mix arithmetic
bond_style      zero
angle_style     zero
